p cnf 7230 17
-4982 -6747 -6781 0
-6703 -6743 -6779 0
-6701 -6741 -6777 0
4982 -6782 0
6703 -6780 0
6701 -6778 0
6781 6782 0
6779 6780 0
6777 6778 0
6747 -6782 0
6743 -6780 0
6741 -6778 0
-4984 -6745 6784 0
6775 6776 0
-6775 -6776 0
6745 -6784 0
4984 -6784 0
